benchmarks_vrp/CMT11/tsp_classic/CMT11_6.vrp
NAME: CMT11_6
TYPE: CVRP
COMMENT: 1042.11 - Cluster Nr.6
DIMENSION: 16
CAPACITY: 200
EDGE_WEIGHT_TYPE: EUC_2D
NODE_COORD_TYPE: TWOD_COORDS
NODE_COORD_SECTION: 
16 46 89
3 85 89
5 85 81
9 87 86
8 90 88
11 85 85
6 50 88
4 90 77
7 54 90
13 54 86
2 83 80
15 83 83
10 10 45
12 93 82
14 87 80
1 93 84
DEPOT_SECTION: 
10
-1
DEMAND_SECTION: 
1 7
8 5
7 10
9 16
12 17
16 35
11 14
5 12
4 19
13 3
2 13
6 7
3 10
10 0
14 8
15 11
EOF
