benchmarks_vrp/CMT11/tsp_classic/CMT11_6.tour
NAME: CMT11_6 solution
TYPE: TOUR
TOUR_SECTION:
10 2 5 14 4 12 1 8 3 9 11 15 13 7 6 16 -1
-1
EOF